n_res = 4;
rc = [ 30, 41, 38, 35 ];
n_tasks = 30;
d = [ 4, 5, 3, 2, 8, 1, 10, 10, 9, 9, 7, 10, 8, 10, 2, 2, 10, 3, 7, 1, 1, 5, 6, 3, 8, 6, 7, 4, 8, 9 ];
rr = [| 1, 5, 6, 5, 5, 3, 4, 2, 8, 2, 7, 10, 2, 2, 10, 4, 4, 4, 1, 1, 8, 2, 7, 3, 3, 1, 4, 7, 2, 8
      | 2, 9, 8, 8, 7, 2, 10, 1, 4, 6, 6, 9, 2, 2, 8, 1, 3, 5, 6, 5, 1, 3, 4, 2, 1, 3, 7, 2, 4, 6
      | 5, 2, 1, 3, 4, 8, 1, 9, 8, 10, 8, 8, 2, 10, 4, 7, 2, 2, 2, 3, 10, 7, 7, 8, 2, 5, 6, 9, 8, 5
      | 9, 9, 9, 9, 6, 6, 6, 2, 9, 2, 2, 4, 10, 6, 3, 3, 3, 9, 10, 5, 1, 9, 4, 2, 5, 5, 2, 3, 3, 6 |];
suc = [ { 2 }, 
        { 1 }, 
        { 4 }, 
        { 3 }, 
        { 6 }, 
        { 5 }, 
        { 8 }, 
        { 7 }, 
        { 10 }, 
        { 9 }, 
        { 12 }, 
        { 11 }, 
        { 14 }, 
        { 13 }, 
        { 16 }, 
        { 15 }, 
        { 18 }, 
        { 17 }, 
        { 20 }, 
        { 19 }, 
        { 22 }, 
        { 21 }, 
        { 24 }, 
        { 23 }, 
        { 26 }, 
        { 25 }, 
        { 28 }, 
        { 27 }, 
        { 30 }, 
        { 29 }]; 
